(declare-fun temp10807_2 () (_ BitVec 64))
(declare-fun temp10807_1 () (_ BitVec 64))
(declare-fun temp10807_3 () (_ BitVec 64))
(declare-fun var2164534 () (_ BitVec 64))
(declare-fun var2363612 () (_ BitVec 64))
(declare-fun temp10807_4 () (_ BitVec 64))
(declare-fun var2494807 () (_ BitVec 64))
(declare-fun temp10807_5 () (_ BitVec 64))
(declare-fun var2494808 () (_ BitVec 64))
(declare-fun temp10807_7 () (_ BitVec 64))
(declare-fun temp10807_6 () (_ BitVec 64))
(declare-fun temp10807_8 () (_ BitVec 64))
(declare-fun var3082280 () (_ BitVec 64))
(declare-fun temp10807_9 () (_ BitVec 64))
(declare-fun var3082322 () (_ BitVec 64))
(declare-fun temp10807_11 () (_ BitVec 64))
(declare-fun temp10807_10 () (_ BitVec 64))
(declare-fun temp10807_12 () (_ BitVec 64))
(declare-fun var3804152 () (_ BitVec 64))
(declare-fun var3082267 () (_ BitVec 64))
(declare-fun var3082266 () (_ BitVec 64))
(declare-fun temp10807_13 () (_ BitVec 64))
(declare-fun var3082271 () (_ BitVec 64))
(declare-fun temp10807_14 () (_ BitVec 64))
(declare-fun var3082273 () (_ BitVec 64))
(declare-fun temp10807_15 () (_ BitVec 64))
(declare-fun temp10807_16 () (_ BitVec 64))
(declare-fun var4197530 () (_ BitVec 64))
(declare-fun temp10807_17 () (_ BitVec 64))
(declare-fun var4589774 () (_ BitVec 64))
(declare-fun temp10807_18 () (_ BitVec 64))
(declare-fun temp10807_19 () (_ BitVec 64))
(declare-fun var4589804 () (_ BitVec 64))
(declare-fun var4589851 () (_ BitVec 64))
(declare-fun var4589772 () (_ BitVec 64))
(declare-fun var532113 () (_ BitVec 64))
(declare-fun var532115 () (_ BitVec 64))
(declare-fun var5185247 () (_ BitVec 64))
(declare-fun temp10807_21 () (_ BitVec 64))
(declare-fun temp10807_20 () (_ BitVec 64))
(assert (= temp10807_2 #x0000000000000000))
(assert (= temp10807_1 temp10807_2))
(assert (= temp10807_3 #x0000000000000000))
(assert (= var2164534 temp10807_3))
(assert (= var2363612 var2164534))
(assert (= temp10807_4 #x0000000000000000))
(assert (= var2494807 temp10807_4))
(assert (= temp10807_5 #x0000000000000000))
(assert (= var2494808 temp10807_5))
(assert (= temp10807_7 #x0000000000000000))
(assert (= temp10807_6 temp10807_7))
(assert (= temp10807_8 #x0000000000000000))
(assert (= var3082280 temp10807_8))
(assert (= temp10807_9 #x0000000000000001))
(assert (= var3082322 temp10807_9))
(assert (= temp10807_11 #x0000000000000000))
(assert (= temp10807_10 temp10807_11))
(assert (= temp10807_12 #x0000000000000001))
(assert (= var3804152 temp10807_12))
(assert (= var3082267 var3082322))
(assert (= var3082266 var3082267))
(assert (= temp10807_13 #x0000000000000001))
(assert (= var3082271 (bvand var3082266 temp10807_13)))
(assert (= temp10807_14 #x0000000000000000))
(assert (= var3082273
   (ite (= var3082271 temp10807_14) #x0000000000000001 #x0000000000000000)))
(assert (= temp10807_15 #x0000000000000000))
(assert (= var3082273 temp10807_15))
(assert (= temp10807_16 #x0000000000000000))
(assert (= var4197530 temp10807_16))
(assert (= temp10807_17 #x0000000000000001))
(assert (= var4589774 temp10807_17))
(assert (= temp10807_18 #x0000000000000000))
(assert (= temp10807_19 #x0000000000000002))
(assert (= var4589804 (ite (= var4589774 #x0000000000000001) temp10807_18 temp10807_19)))
(assert (= var4589851 var4589804))
(assert (= var4589772 var4589851))
(assert (= var532113 var4589772))
(assert (= var532115 var532113))
(assert (= var5185247 var532115))
(assert (= temp10807_21 #x0000000000000005))
(assert (= temp10807_20 temp10807_21))
(model-add temp10807_2 () (_ BitVec 64) #x0000000000000000)
(model-add temp10807_1 () (_ BitVec 64) #x0000000000000000)
(model-add temp10807_3 () (_ BitVec 64) #x0000000000000000)
(model-add var2164534 () (_ BitVec 64) #x0000000000000000)
(model-add var2363612 () (_ BitVec 64) #x0000000000000000)
(model-add temp10807_4 () (_ BitVec 64) #x0000000000000000)
(model-add var2494807 () (_ BitVec 64) #x0000000000000000)
(model-add temp10807_5 () (_ BitVec 64) #x0000000000000000)
(model-add var2494808 () (_ BitVec 64) #x0000000000000000)
(model-add temp10807_7 () (_ BitVec 64) #x0000000000000000)
(model-add temp10807_6 () (_ BitVec 64) #x0000000000000000)
(model-add temp10807_8 () (_ BitVec 64) #x0000000000000000)
(model-add var3082280 () (_ BitVec 64) #x0000000000000000)
(model-add temp10807_9 () (_ BitVec 64) #x0000000000000001)
(model-add var3082322 () (_ BitVec 64) #x0000000000000001)
(model-add temp10807_11 () (_ BitVec 64) #x0000000000000000)
(model-add temp10807_10 () (_ BitVec 64) #x0000000000000000)
(model-add temp10807_12 () (_ BitVec 64) #x0000000000000001)
(model-add var3804152 () (_ BitVec 64) #x0000000000000001)
(model-add var3082267 () (_ BitVec 64) #x0000000000000001)
(model-add var3082266 () (_ BitVec 64) #x0000000000000001)
(model-add temp10807_13 () (_ BitVec 64) #x0000000000000001)
(model-add var3082271 () (_ BitVec 64) #x0000000000000001)
(model-add temp10807_14 () (_ BitVec 64) #x0000000000000000)
(model-add var3082273 () (_ BitVec 64) #x0000000000000000)
(model-add temp10807_15 () (_ BitVec 64) #x0000000000000000)






